results_rootrelaxation/bin012_090_025.srr.sol
solution status: optimal solution found
objective value:                                   34
_var691_                           0.0500000000000003 	(obj:2)
_var708_                                          0.8 	(obj:2)
_var734_                                          0.4 	(obj:2)
_var758_                                          0.9 	(obj:3)
_var775_                                         0.45 	(obj:5)
_var781_                                         0.45 	(obj:5)
_var787_                            0.400000000000001 	(obj:3)
_var801_                                          0.7 	(obj:1)
_var806_                                         0.45 	(obj:5)
_var808_                                         0.05 	(obj:5)
_var810_                                            1 	(obj:3)
_var811_                                          0.5 	(obj:2)
_var815_                            0.649999999999999 	(obj:3)
_var816_                                          0.9 	(obj:2)
_var817_                           0.0500000000000005 	(obj:5)
_var822_                           0.0500000000000002 	(obj:2)
_var826_                           0.0999999999999989 	(obj:3)
_var827_                                          0.1 	(obj:3)
_var828_                           0.0500000000000001 	(obj:4)
_var829_                                         0.15 	(obj:3)
_var834_                           0.0499999999999998 	(obj:2)
_var835_                                          0.1 	(obj:3)
_var836_                                         0.55 	(obj:5)
_var837_                           0.0499999999999997 	(obj:3)
_var840_                                         0.25 	(obj:5)
_var841_                                          0.5 	(obj:3)
_var844_                                          0.2 	(obj:2)
_var847_                                          0.1 	(obj:3)
_var849_                                          0.3 	(obj:4)
_var851_                                          0.2 	(obj:4)
_var852_                           0.0499999999999996 	(obj:3)
_var858_                           0.0500000000000003 	(obj:3)
_var860_                           0.0500000000000004 	(obj:5)
_var862_                           0.0500000000000004 	(obj:5)
_var863_                           0.0500000000000001 	(obj:2)
_var865_                           0.0500000000000003 	(obj:2)
_var871_                                         0.05 	(obj:5)
_var872_                           0.0500000000000002 	(obj:3)
_var878_                           0.0500000000000016 	(obj:3)
_var880_                           0.0499999999999998 	(obj:5)
